certificates/rado_a11_c24_N24.drat
-23 4 0
-24 0
4 0
-2 0
22 0
23 0
-3 0
11 0
12 0
5 0
1 0
15 0
-18 0
-14 0
-21 0
-17 0
-9 0
-10 0
20 0
0
